JulietBench/Juliet_Based_Patch_Bench/FFmpeg/CWE-189-Numeric-Errors/CVE_2014_9602_93a5a16f136d095d23610f57bdad10ba88120fba/Resultxface_decode_frame_Snippet_patch1NEQ.smt2
; benchmark generated from python API
(set-info :status unknown)
(declare-fun R () (_ BitVec 32))
(declare-fun rdi () (_ BitVec 64))
(declare-fun rsi () (_ BitVec 64))
(assert
 (let (($x45 (= (_ bv4294967295 32) R)))
 (let ((?x6 ((_ extract 31 0) rdi)))
 (let ((?x11 (bvadd (_ bv1 32) ?x6)))
 (let (($x96 (bvslt (_ bv666 32) ?x11)))
 (let (($x52 (and $x96 $x45)))
 (let (($x36 (= (_ bv0 32) R)))
 (let (($x83 (bvsge (_ bv666 32) ?x11)))
 (let ((?x8 ((_ extract 31 0) rsi)))
 (let (($x84 (bvsge (_ bv545 32) ?x8)))
 (let (($x62 (and $x84 $x83 $x36)))
 (let (($x66 (bvslt (_ bv545 32) ?x8)))
 (let (($x57 (and $x66 $x83 $x45)))
 (let (($x53 (or $x57 $x62 $x52)))
 (let (($x55 (not $x53)))
 (let (($x49 (bvslt (_ bv704 32) ?x11)))
 (let (($x35 (and $x49 $x45)))
 (let (($x16 (bvsge (_ bv704 32) ?x11)))
 (let (($x51 (bvsge (_ bv575 32) ?x8)))
 (let (($x37 (and $x51 $x16 $x36)))
 (let (($x72 (bvslt (_ bv575 32) ?x8)))
 (let (($x41 (and $x72 $x16 $x45)))
 (let (($x59 (or $x41 $x37 $x35)))
 (let (($x54 (not $x59)))
 (let (($x38 (and $x54 $x55)))
 (let (($x58 (and $x59 $x53)))
 (let (($x48 (or $x58 $x38)))
 (not $x48))))))))))))))))))))))))))))
(check-sat)
